seed= 2052018 ;
N= 150 ;
M= 2 ;
F= 5 ;
K= 8 ;
T= 54 ;

p=[ 2 2 2 2 2 2 2 2 2 2 2 2 2 2 2 2 2 2 2 2 2 2 2 2 2 2 2 2 2 2 2 2 2 2 2 2 2 2 2 2 2 2 2 2 2 2 2 2 2 2 2 2 2 2 2 2 2 2 2 2 4 4 4 4 4 4 4 4 4 4 4 4 4 4 4 4 4 4 4 4 4 4 4 4 4 4 4 4 4 4 10 10 10 10 10 10 10 10 10 10 10 10 10 10 10 10 10 10 10 10 10 10 10 10 10 10 10 10 10 10 2 2 2 2 2 2 2 2 2 2 2 2 2 2 2 2 2 2 2 2 2 2 2 2 2 2 2 2 2 2 ];
r=[ 0 0 0 0 0 0 0 0 0 0 0 0 0 0 0 0 0 0 0 0 0 0 0 0 0 0 0 0 0 0 0 0 0 0 0 0 0 0 0 0 0 0 0 0 0 0 0 0 0 0 0 0 0 0 0 0 0 0 0 0 0 0 0 0 0 0 0 0 0 0 0 0 0 0 0 0 0 0 0 0 0 0 0 0 0 0 0 0 0 0 0 0 0 0 0 0 0 0 0 0 0 0 0 0 0 0 0 0 0 0 0 0 0 0 0 0 0 0 0 0 0 0 0 0 0 0 0 0 0 0 0 0 0 0 0 0 0 0 0 0 0 0 0 0 0 0 0 0 0 0 ];
d=[ 14 11 17 36 22 36 29 6 37 27 3 5 30 36 19 14 18 13 34 26 29 8 34 11 1 26 2 34 24 1 12 14 8 24 4 28 4 17 20 35 26 12 30 14 3 22 19 8 25 26 28 33 30 32 1 25 15 10 19 1 16 26 5 5 13 25 0 23 14 31 11 0 17 36 27 10 8 32 25 37 21 31 3 32 35 35 32 16 8 3 23 12 26 24 28 15 14 3 4 6 23 14 33 18 29 17 11 9 21 23 1 32 25 1 31 31 37 5 17 10 2 19 30 15 24 27 15 18 29 1 8 31 30 16 14 29 30 3 31 21 8 34 3 18 27 1 12 6 7 23 ];
s=[ 1 1 1 1 1 1 1 1 1 1 1 1 1 1 1 1 1 1 1 1 1 1 1 1 1 1 1 1 1 1 1 1 1 1 1 1 1 1 1 1 1 1 1 1 1 1 1 1 1 1 1 1 1 1 1 1 1 1 1 1 1 1 1 1 1 1 1 1 1 1 1 1 1 1 1 1 1 1 1 1 1 1 1 1 1 1 1 1 1 1 1 1 1 1 1 1 1 1 1 1 1 1 1 1 1 1 1 1 1 1 1 1 1 1 1 1 1 1 1 1 1 1 1 1 1 1 1 1 1 1 1 1 1 1 1 1 1 1 1 1 1 1 1 1 1 1 1 1 1 1 ];
w=[ 5 2 3 4 3 3 4 1 4 2 2 2 2 2 2 2 5 5 4 1 1 1 3 2 4 3 1 3 2 4 2 5 3 5 5 3 5 3 5 2 2 3 3 1 4 4 3 1 5 2 4 4 2 2 1 2 2 1 4 4 4 2 4 4 1 1 5 2 4 4 2 1 1 1 1 4 1 5 2 2 1 5 2 2 1 1 2 1 3 2 3 1 1 5 4 1 3 4 1 5 5 4 4 4 2 1 4 3 2 1 3 3 1 1 5 2 1 2 3 2 1 2 5 2 3 3 5 1 5 1 3 4 2 5 5 4 1 2 2 5 5 4 4 5 4 1 2 3 4 3 ];
f=[ 1 1 1 1 1 1 1 1 1 1 1 1 1 1 1 1 1 1 1 1 1 1 1 1 1 1 1 1 1 1 2 2 2 2 2 2 2 2 2 2 2 2 2 2 2 2 2 2 2 2 2 2 2 2 2 2 2 2 2 2 3 3 3 3 3 3 3 3 3 3 3 3 3 3 3 3 3 3 3 3 3 3 3 3 3 3 3 3 3 3 4 4 4 4 4 4 4 4 4 4 4 4 4 4 4 4 4 4 4 4 4 4 4 4 4 4 4 4 4 4 5 5 5 5 5 5 5 5 5 5 5 5 5 5 5 5 5 5 5 5 5 5 5 5 5 5 5 5 5 5 ];

e1=[ 10 10 10 10 10 10 10 10 10 10 10 10 10 10 10 10 10 10 10 10 10 10 10 10 10 10 10 8 8 8 8 8 8 8 8 8 8 8 8 8 8 8 8 8 8 8 8 8 8 8 8 8 8 8 ];
e2=[ 10 10 10 10 10 10 10 10 10 10 10 10 10 10 10 10 10 10 9 9 9 9 9 9 9 9 9 8 8 8 8 8 8 8 8 8 8 8 8 8 8 8 8 8 8 9 9 9 9 9 9 9 9 9 ];